Version identifier: 12.10.0.0 | 2019-11-26 | 843d4de
CPXPARAM_WorkMem                                 28672
Tried aggregator 2 times.
Aggregator did 45 substitutions.
Reduced MIP has 153 rows, 180 columns, and 705 nonzeros.
Reduced MIP has 180 binaries, 0 generals, 0 SOSs, and 0 indicators.
Presolve time = 0,00 sec. (0,67 ticks)
Found incumbent of value 135,000000 after 0,00 sec. (1,19 ticks)
Probing time = 0,00 sec. (0,25 ticks)
Tried aggregator 1 time.
Detecting symmetries...
MIP Presolve eliminated 30 rows and 0 columns.
MIP Presolve added 60 rows and 0 columns.
Reduced MIP has 183 rows, 180 columns, and 735 nonzeros.
Reduced MIP has 180 binaries, 0 generals, 0 SOSs, and 0 indicators.
Presolve time = 0,00 sec. (0,84 ticks)
Probing time = 0,00 sec. (0,24 ticks)
Clique table members: 495.
MIP emphasis: balance optimality and feasibility.
MIP search method: dynamic search.
Parallel mode: deterministic, using up to 16 threads.
Root relaxation solution time = 0,00 sec. (0,64 ticks)

        Nodes                                         Cuts/
   Node  Left     Objective  IInf  Best Integer    Best Bound    ItCnt     Gap

*     0+    0                          135,0000        0,0000           100,00%
*     0+    0                           93,0000        0,0000           100,00%
*     0+    0                           91,0000        0,0000           100,00%
      0     0       45,0000   153       91,0000       45,0000       69   50,55%
      0     0       45,0992   153       91,0000     Cuts: 150      145   50,44%
*     0+    0                           90,0000       45,0992            49,89%
      0     0       46,2674   153       90,0000     Cuts: 145      188   48,59%
      0     0       46,5661   153       90,0000     Cuts: 145      224   48,26%
      0     0       46,6024   153       90,0000     Cuts: 106      238   48,22%
      0     0       46,6463   153       90,0000      Cuts: 78      257   48,17%
      0     0       47,4469   153       90,0000       Cuts: 9      283   47,28%
      0     0       47,4710   153       90,0000   ZeroHalf: 2      297   47,25%
      0     0       47,4862   153       90,0000      Cuts: 70      309   47,24%
      0     0       47,4868   153       90,0000      Cuts: 39      325   47,24%
      0     0       47,5152   153       90,0000   ZeroHalf: 1      336   47,21%
      0     0       47,5511   153       90,0000     Cuts: 143      345   47,17%
      0     0       47,5669   153       90,0000   ZeroHalf: 3      353   47,15%
      0     0       47,5814   153       90,0000   ZeroHalf: 4      360   47,13%
      0     0       47,5975   153       90,0000     Cuts: 145      365   47,11%
      0     0       47,6631   153       90,0000   ZeroHalf: 2      381   47,04%
      0     0       47,6916   153       90,0000     Cuts: 145      387   47,01%
      0     0       47,6932   153       90,0000   ZeroHalf: 3      389   47,01%
*     0+    0                           87,0000       47,6932            45,18%
      0     2       47,6932   179       87,0000       48,8333      389   43,87%
Elapsed time = 0,18 sec. (95,81 ticks, tree = 0,02 MB, solutions = 5)
*     6+    1                           85,0000       48,8333            42,55%
   1613    95        cutoff             85,0000       59,6911    21374   29,78%

Clique cuts applied:  76
Cover cuts applied:  226
Flow cuts applied:  11
Mixed integer rounding cuts applied:  48
Zero-half cuts applied:  32
Gomory fractional cuts applied:  8

Root node processing (before b&c):
  Real time             =    0,18 sec. (95,56 ticks)
Parallel b&c, 16 threads:
  Real time             =    0,52 sec. (405,98 ticks)
  Sync time (average)   =    0,13 sec.
  Wait time (average)   =    0,00 sec.
                          ------------
Total (root+branch&cut) =    0,69 sec. (501,54 ticks)
